p edge 874 1600
e 1 19 1
e 1 2 1
e 2 20 1
e 2 3 1
e 3 21 1
e 3 4 1
e 4 22 1
e 4 5 1
e 5 6 1
e 6 7 1
e 7 23 1
e 7 8 1
e 8 24 1
e 8 9 1
e 9 25 1
e 9 10 1
e 10 26 1
e 10 11 1
e 11 27 1
e 11 12 1
e 12 28 1
e 12 13 1
e 13 29 1
e 13 14 1
e 14 30 1
e 14 15 1
e 15 31 1
e 15 16 1
e 16 32 1
e 16 17 1
e 17 33 1
e 17 18 1
e 18 34 1
e 19 35 1
e 19 20 1
e 20 36 1
e 20 21 1
e 21 37 1
e 21 22 1
e 23 24 1
e 24 38 1
e 24 25 1
e 25 39 1
e 25 26 1
e 26 40 1
e 26 27 1
e 27 41 1
e 27 28 1
e 28 42 1
e 28 29 1
e 29 43 1
e 29 30 1
e 30 44 1
e 30 31 1
e 31 45 1
e 31 32 1
e 32 46 1
e 32 33 1
e 33 47 1
e 33 34 1
e 34 48 1
e 35 53 1
e 35 36 1
e 36 54 1
e 36 37 1
e 37 55 1
e 38 56 1
e 38 39 1
e 39 57 1
e 39 40 1
e 40 58 1
e 40 41 1
e 41 59 1
e 41 42 1
e 42 60 1
e 42 43 1
e 43 61 1
e 43 44 1
e 44 62 1
e 44 45 1
e 45 63 1
e 45 46 1
e 46 64 1
e 46 47 1
e 47 65 1
e 47 48 1
e 48 66 1
e 48 49 1
e 49 67 1
e 49 50 1
e 50 68 1
e 51 69 1
e 51 52 1
e 52 70 1
e 52 53 1
e 53 71 1
e 53 54 1
e 54 72 1
e 54 55 1
e 55 73 1
e 56 76 1
e 56 57 1
e 57 77 1
e 57 58 1
e 58 78 1
e 58 59 1
e 59 79 1
e 59 60 1
e 60 80 1
e 60 61 1
e 61 81 1
e 61 62 1
e 62 82 1
e 62 63 1
e 63 83 1
e 63 64 1
e 64 84 1
e 64 65 1
e 65 85 1
e 65 66 1
e 66 86 1
e 66 67 1
e 67 87 1
e 67 68 1
e 69 88 1
e 69 70 1
e 70 89 1
e 70 71 1
e 71 90 1
e 71 72 1
e 72 91 1
e 72 73 1
e 73 92 1
e 73 74 1
e 74 93 1
e 75 94 1
e 75 76 1
e 76 95 1
e 76 77 1
e 77 96 1
e 77 78 1
e 78 97 1
e 78 79 1
e 79 98 1
e 79 80 1
e 80 99 1
e 80 81 1
e 81 100 1
e 81 82 1
e 82 101 1
e 82 83 1
e 83 102 1
e 83 84 1
e 84 103 1
e 84 85 1
e 85 104 1
e 85 86 1
e 86 105 1
e 86 87 1
e 87 106 1
e 88 107 1
e 88 89 1
e 89 108 1
e 89 90 1
e 90 109 1
e 90 91 1
e 91 110 1
e 91 92 1
e 92 111 1
e 92 93 1
e 93 112 1
e 94 115 1
e 94 95 1
e 95 116 1
e 95 96 1
e 96 117 1
e 96 97 1
e 97 118 1
e 97 98 1
e 98 119 1
e 98 99 1
e 99 120 1
e 99 100 1
e 100 121 1
e 100 101 1
e 101 122 1
e 101 102 1
e 102 123 1
e 102 103 1
e 103 124 1
e 103 104 1
e 104 125 1
e 104 105 1
e 105 126 1
e 105 106 1
e 106 127 1
e 107 128 1
e 107 108 1
e 108 129 1
e 108 109 1
e 109 130 1
e 109 110 1
e 110 131 1
e 110 111 1
e 111 132 1
e 111 112 1
e 112 133 1
e 112 113 1
e 113 134 1
e 113 114 1
e 114 135 1
e 114 115 1
e 115 136 1
e 115 116 1
e 116 137 1
e 116 117 1
e 117 138 1
e 117 118 1
e 118 139 1
e 118 119 1
e 119 140 1
e 119 120 1
e 120 141 1
e 120 121 1
e 121 142 1
e 121 122 1
e 122 143 1
e 122 123 1
e 123 144 1
e 123 124 1
e 124 145 1
e 124 125 1
e 125 146 1
e 125 126 1
e 126 147 1
e 126 127 1
e 127 148 1
e 128 149 1
e 128 129 1
e 129 150 1
e 129 130 1
e 130 151 1
e 130 131 1
e 131 152 1
e 131 132 1
e 132 153 1
e 132 133 1
e 133 154 1
e 133 134 1
e 134 155 1
e 134 135 1
e 135 156 1
e 135 136 1
e 136 157 1
e 136 137 1
e 137 158 1
e 137 138 1
e 138 159 1
e 138 139 1
e 139 160 1
e 139 140 1
e 140 161 1
e 140 141 1
e 141 162 1
e 141 142 1
e 142 163 1
e 142 143 1
e 143 164 1
e 143 144 1
e 144 165 1
e 144 145 1
e 145 166 1
e 145 146 1
e 146 167 1
e 146 147 1
e 147 168 1
e 147 148 1
e 148 169 1
e 149 150 1
e 150 151 1
e 151 172 1
e 151 152 1
e 152 173 1
e 152 153 1
e 153 174 1
e 153 154 1
e 154 175 1
e 154 155 1
e 155 176 1
e 155 156 1
e 156 177 1
e 156 157 1
e 157 178 1
e 157 158 1
e 158 179 1
e 158 159 1
e 159 180 1
e 159 160 1
e 160 181 1
e 160 161 1
e 161 182 1
e 161 162 1
e 162 183 1
e 162 163 1
e 163 184 1
e 163 164 1
e 164 185 1
e 164 165 1
e 165 186 1
e 165 166 1
e 166 187 1
e 166 167 1
e 167 188 1
e 167 168 1
e 168 189 1
e 168 169 1
e 169 190 1
e 169 170 1
e 170 171 1
e 172 173 1
e 173 191 1
e 173 174 1
e 174 192 1
e 174 175 1
e 175 193 1
e 175 176 1
e 176 194 1
e 176 177 1
e 177 195 1
e 177 178 1
e 178 196 1
e 178 179 1
e 179 197 1
e 179 180 1
e 180 198 1
e 180 181 1
e 181 199 1
e 181 182 1
e 182 200 1
e 182 183 1
e 183 201 1
e 183 184 1
e 184 202 1
e 184 185 1
e 185 203 1
e 185 186 1
e 186 204 1
e 186 187 1
e 187 205 1
e 187 188 1
e 188 206 1
e 188 189 1
e 189 207 1
e 189 190 1
e 190 208 1
e 191 210 1
e 191 192 1
e 192 211 1
e 192 193 1
e 193 212 1
e 193 194 1
e 194 213 1
e 194 195 1
e 195 214 1
e 195 196 1
e 196 215 1
e 196 197 1
e 197 216 1
e 197 198 1
e 198 217 1
e 198 199 1
e 199 218 1
e 199 200 1
e 200 219 1
e 200 201 1
e 201 220 1
e 201 202 1
e 202 221 1
e 202 203 1
e 203 222 1
e 203 204 1
e 204 205 1
e 205 206 1
e 206 223 1
e 206 207 1
e 207 224 1
e 207 208 1
e 208 225 1
e 208 209 1
e 209 226 1
e 210 211 1
e 211 212 1
e 212 213 1
e 213 227 1
e 213 214 1
e 214 228 1
e 214 215 1
e 215 229 1
e 215 216 1
e 216 230 1
e 216 217 1
e 217 231 1
e 217 218 1
e 218 232 1
e 218 219 1
e 219 233 1
e 219 220 1
e 220 234 1
e 220 221 1
e 221 235 1
e 221 222 1
e 222 236 1
e 223 237 1
e 223 224 1
e 224 238 1
e 224 225 1
e 225 239 1
e 225 226 1
e 226 240 1
e 227 228 1
e 228 229 1
e 229 244 1
e 229 230 1
e 230 245 1
e 230 231 1
e 231 246 1
e 231 232 1
e 232 247 1
e 232 233 1
e 233 248 1
e 233 234 1
e 234 249 1
e 234 235 1
e 235 250 1
e 235 236 1
e 236 251 1
e 237 254 1
e 237 238 1
e 238 255 1
e 238 239 1
e 239 256 1
e 239 240 1
e 240 257 1
e 240 241 1
e 241 258 1
e 241 242 1
e 242 259 1
e 242 243 1
e 243 260 1
e 244 261 1
e 244 245 1
e 245 262 1
e 245 246 1
e 246 263 1
e 246 247 1
e 247 264 1
e 247 248 1
e 248 265 1
e 248 249 1
e 249 266 1
e 249 250 1
e 250 267 1
e 250 251 1
e 251 268 1
e 251 252 1
e 252 269 1
e 252 253 1
e 253 270 1
e 253 254 1
e 254 271 1
e 254 255 1
e 255 272 1
e 255 256 1
e 256 273 1
e 256 257 1
e 257 274 1
e 257 258 1
e 258 275 1
e 258 259 1
e 259 276 1
e 259 260 1
e 260 277 1
e 261 282 1
e 261 262 1
e 262 283 1
e 262 263 1
e 263 284 1
e 263 264 1
e 264 285 1
e 264 265 1
e 265 286 1
e 265 266 1
e 266 287 1
e 266 267 1
e 267 288 1
e 267 268 1
e 268 289 1
e 268 269 1
e 269 290 1
e 269 270 1
e 270 291 1
e 270 271 1
e 271 292 1
e 271 272 1
e 272 293 1
e 272 273 1
e 273 294 1
e 273 274 1
e 274 295 1
e 274 275 1
e 275 296 1
e 275 276 1
e 276 297 1
e 276 277 1
e 277 298 1
e 277 278 1
e 278 299 1
e 278 279 1
e 279 300 1
e 279 280 1
e 280 301 1
e 280 281 1
e 281 302 1
e 282 303 1
e 282 283 1
e 283 304 1
e 283 284 1
e 284 305 1
e 284 285 1
e 285 306 1
e 285 286 1
e 286 307 1
e 286 287 1
e 287 308 1
e 287 288 1
e 288 309 1
e 288 289 1
e 289 310 1
e 289 290 1
e 290 311 1
e 290 291 1
e 291 312 1
e 291 292 1
e 292 313 1
e 292 293 1
e 293 314 1
e 293 294 1
e 294 315 1
e 294 295 1
e 295 316 1
e 295 296 1
e 296 317 1
e 296 297 1
e 297 318 1
e 297 298 1
e 298 319 1
e 298 299 1
e 299 320 1
e 299 300 1
e 300 321 1
e 300 301 1
e 301 322 1
e 301 302 1
e 302 323 1
e 303 326 1
e 303 304 1
e 304 327 1
e 304 305 1
e 305 328 1
e 305 306 1
e 306 329 1
e 306 307 1
e 307 330 1
e 307 308 1
e 308 331 1
e 308 309 1
e 309 332 1
e 309 310 1
e 310 333 1
e 310 311 1
e 311 334 1
e 311 312 1
e 312 335 1
e 312 313 1
e 313 336 1
e 313 314 1
e 314 337 1
e 314 315 1
e 315 338 1
e 315 316 1
e 316 339 1
e 316 317 1
e 317 340 1
e 317 318 1
e 318 319 1
e 319 320 1
e 320 341 1
e 320 321 1
e 321 342 1
e 321 322 1
e 322 323 1
e 324 348 1
e 324 325 1
e 325 349 1
e 325 326 1
e 326 350 1
e 326 327 1
e 327 351 1
e 327 328 1
e 328 352 1
e 328 329 1
e 329 353 1
e 329 330 1
e 330 354 1
e 330 331 1
e 331 355 1
e 331 332 1
e 332 356 1
e 332 333 1
e 333 357 1
e 333 334 1
e 334 358 1
e 334 335 1
e 335 359 1
e 335 336 1
e 336 360 1
e 336 337 1
e 337 361 1
e 337 338 1
e 338 362 1
e 338 339 1
e 339 363 1
e 339 340 1
e 341 364 1
e 341 342 1
e 342 365 1
e 343 366 1
e 343 344 1
e 344 367 1
e 344 345 1
e 345 368 1
e 345 346 1
e 346 369 1
e 346 347 1
e 347 370 1
e 347 348 1
e 348 371 1
e 348 349 1
e 349 372 1
e 349 350 1
e 350 373 1
e 350 351 1
e 351 374 1
e 351 352 1
e 352 375 1
e 352 353 1
e 353 376 1
e 353 354 1
e 354 377 1
e 354 355 1
e 355 378 1
e 355 356 1
e 356 379 1
e 356 357 1
e 357 380 1
e 357 358 1
e 358 381 1
e 358 359 1
e 359 382 1
e 359 360 1
e 360 383 1
e 360 361 1
e 361 384 1
e 361 362 1
e 362 385 1
e 362 363 1
e 363 386 1
e 364 387 1
e 364 365 1
e 365 388 1
e 366 389 1
e 366 367 1
e 367 390 1
e 367 368 1
e 368 391 1
e 368 369 1
e 369 392 1
e 369 370 1
e 370 393 1
e 370 371 1
e 371 394 1
e 371 372 1
e 372 395 1
e 372 373 1
e 373 396 1
e 373 374 1
e 374 397 1
e 374 375 1
e 375 398 1
e 375 376 1
e 376 399 1
e 376 377 1
e 377 400 1
e 377 378 1
e 378 401 1
e 378 379 1
e 379 402 1
e 379 380 1
e 380 403 1
e 380 381 1
e 381 404 1
e 381 382 1
e 382 405 1
e 382 383 1
e 383 406 1
e 383 384 1
e 384 407 1
e 384 385 1
e 385 408 1
e 385 386 1
e 386 409 1
e 387 411 1
e 387 388 1
e 388 412 1
e 389 413 1
e 389 390 1
e 390 414 1
e 390 391 1
e 391 415 1
e 391 392 1
e 392 416 1
e 392 393 1
e 393 417 1
e 393 394 1
e 394 395 1
e 395 396 1
e 396 397 1
e 397 418 1
e 397 398 1
e 398 419 1
e 398 399 1
e 399 420 1
e 399 400 1
e 400 421 1
e 400 401 1
e 401 422 1
e 401 402 1
e 402 423 1
e 402 403 1
e 403 424 1
e 403 404 1
e 404 425 1
e 404 405 1
e 405 426 1
e 405 406 1
e 406 407 1
e 407 408 1
e 408 409 1
e 409 410 1
e 411 427 1
e 411 412 1
e 412 428 1
e 413 414 1
e 414 415 1
e 415 416 1
e 416 417 1
e 418 419 1
e 419 420 1
e 420 421 1
e 421 422 1
e 422 429 1
e 422 423 1
e 423 430 1
e 423 424 1
e 424 431 1
e 424 425 1
e 425 432 1
e 425 426 1
e 426 433 1
e 427 434 1
e 427 428 1
e 428 435 1
e 429 436 1
e 429 430 1
e 430 437 1
e 430 431 1
e 431 438 1
e 431 432 1
e 432 439 1
e 432 433 1
e 433 440 1
e 434 441 1
e 434 435 1
e 435 442 1
e 436 444 1
e 436 437 1
e 437 445 1
e 437 438 1
e 438 446 1
e 438 439 1
e 439 447 1
e 439 440 1
e 440 448 1
e 441 453 1
e 441 442 1
e 442 454 1
e 443 455 1
e 443 444 1
e 444 456 1
e 444 445 1
e 445 457 1
e 445 446 1
e 446 458 1
e 446 447 1
e 447 459 1
e 447 448 1
e 448 460 1
e 448 449 1
e 449 461 1
e 449 450 1
e 450 462 1
e 450 451 1
e 451 463 1
e 451 452 1
e 452 464 1
e 453 465 1
e 453 454 1
e 454 466 1
e 455 467 1
e 455 456 1
e 456 468 1
e 456 457 1
e 457 469 1
e 457 458 1
e 458 470 1
e 458 459 1
e 459 471 1
e 459 460 1
e 460 472 1
e 460 461 1
e 461 473 1
e 461 462 1
e 462 474 1
e 462 463 1
e 463 475 1
e 463 464 1
e 464 476 1
e 465 477 1
e 465 466 1
e 466 478 1
e 467 479 1
e 467 468 1
e 468 480 1
e 468 469 1
e 469 481 1
e 469 470 1
e 470 482 1
e 470 471 1
e 471 483 1
e 471 472 1
e 472 484 1
e 472 473 1
e 473 485 1
e 473 474 1
e 474 486 1
e 474 475 1
e 475 487 1
e 475 476 1
e 476 488 1
e 477 489 1
e 477 478 1
e 478 490 1
e 479 491 1
e 479 480 1
e 480 492 1
e 480 481 1
e 481 493 1
e 481 482 1
e 482 494 1
e 482 483 1
e 483 495 1
e 483 484 1
e 484 496 1
e 484 485 1
e 485 497 1
e 485 486 1
e 486 498 1
e 486 487 1
e 487 499 1
e 487 488 1
e 488 500 1
e 489 502 1
e 489 490 1
e 490 503 1
e 491 505 1
e 491 492 1
e 492 506 1
e 492 493 1
e 493 507 1
e 493 494 1
e 494 508 1
e 494 495 1
e 495 509 1
e 495 496 1
e 496 510 1
e 496 497 1
e 497 511 1
e 497 498 1
e 498 512 1
e 498 499 1
e 499 513 1
e 499 500 1
e 500 514 1
e 500 501 1
e 501 515 1
e 502 518 1
e 502 503 1
e 503 519 1
e 503 504 1
e 504 520 1
e 505 506 1
e 506 507 1
e 507 508 1
e 508 521 1
e 508 509 1
e 509 522 1
e 509 510 1
e 510 523 1
e 510 511 1
e 511 524 1
e 511 512 1
e 512 525 1
e 512 513 1
e 513 526 1
e 513 514 1
e 514 527 1
e 514 515 1
e 515 528 1
e 515 516 1
e 516 529 1
e 516 517 1
e 517 530 1
e 517 518 1
e 518 531 1
e 518 519 1
e 519 532 1
e 519 520 1
e 520 533 1
e 521 535 1
e 521 522 1
e 522 536 1
e 522 523 1
e 523 537 1
e 523 524 1
e 524 538 1
e 524 525 1
e 525 539 1
e 525 526 1
e 526 540 1
e 526 527 1
e 527 541 1
e 527 528 1
e 528 542 1
e 528 529 1
e 529 543 1
e 529 530 1
e 530 544 1
e 530 531 1
e 531 545 1
e 531 532 1
e 532 546 1
e 532 533 1
e 533 547 1
e 533 534 1
e 534 548 1
e 535 549 1
e 535 536 1
e 536 550 1
e 536 537 1
e 537 551 1
e 537 538 1
e 538 552 1
e 538 539 1
e 539 553 1
e 539 540 1
e 540 554 1
e 540 541 1
e 541 555 1
e 541 542 1
e 542 556 1
e 542 543 1
e 543 557 1
e 543 544 1
e 544 558 1
e 544 545 1
e 545 559 1
e 545 546 1
e 546 560 1
e 546 547 1
e 547 561 1
e 547 548 1
e 548 562 1
e 549 563 1
e 549 550 1
e 550 564 1
e 550 551 1
e 551 565 1
e 551 552 1
e 552 566 1
e 552 553 1
e 553 567 1
e 553 554 1
e 554 568 1
e 554 555 1
e 555 569 1
e 555 556 1
e 556 570 1
e 556 557 1
e 557 571 1
e 557 558 1
e 558 572 1
e 558 559 1
e 559 573 1
e 559 560 1
e 560 574 1
e 560 561 1
e 561 575 1
e 561 562 1
e 562 576 1
e 563 577 1
e 563 564 1
e 564 578 1
e 564 565 1
e 565 579 1
e 565 566 1
e 566 580 1
e 566 567 1
e 567 581 1
e 567 568 1
e 568 582 1
e 568 569 1
e 569 583 1
e 569 570 1
e 570 584 1
e 570 571 1
e 571 585 1
e 571 572 1
e 572 586 1
e 572 573 1
e 573 587 1
e 573 574 1
e 574 588 1
e 574 575 1
e 575 589 1
e 575 576 1
e 576 590 1
e 577 591 1
e 577 578 1
e 578 592 1
e 578 579 1
e 579 593 1
e 579 580 1
e 580 594 1
e 580 581 1
e 581 595 1
e 581 582 1
e 582 596 1
e 582 583 1
e 583 597 1
e 583 584 1
e 584 598 1
e 584 585 1
e 585 599 1
e 585 586 1
e 586 600 1
e 586 587 1
e 587 601 1
e 587 588 1
e 588 602 1
e 588 589 1
e 589 603 1
e 589 590 1
e 590 604 1
e 591 625 1
e 591 592 1
e 592 626 1
e 592 593 1
e 593 627 1
e 593 594 1
e 594 628 1
e 594 595 1
e 595 629 1
e 595 596 1
e 596 630 1
e 596 597 1
e 597 631 1
e 597 598 1
e 598 632 1
e 598 599 1
e 599 633 1
e 599 600 1
e 600 634 1
e 600 601 1
e 601 635 1
e 601 602 1
e 602 636 1
e 602 603 1
e 603 637 1
e 603 604 1
e 604 638 1
e 604 605 1
e 605 639 1
e 605 606 1
e 606 640 1
e 607 641 1
e 607 608 1
e 608 642 1
e 608 609 1
e 609 643 1
e 609 610 1
e 610 644 1
e 610 611 1
e 611 645 1
e 611 612 1
e 612 646 1
e 612 613 1
e 613 647 1
e 613 614 1
e 614 648 1
e 614 615 1
e 615 649 1
e 615 616 1
e 616 650 1
e 616 617 1
e 617 651 1
e 617 618 1
e 618 652 1
e 618 619 1
e 619 653 1
e 619 620 1
e 620 654 1
e 620 621 1
e 621 655 1
e 621 622 1
e 622 656 1
e 622 623 1
e 623 657 1
e 623 624 1
e 624 658 1
e 624 625 1
e 625 659 1
e 625 626 1
e 626 660 1
e 626 627 1
e 627 661 1
e 627 628 1
e 628 662 1
e 628 629 1
e 629 663 1
e 629 630 1
e 630 664 1
e 630 631 1
e 631 665 1
e 631 632 1
e 632 666 1
e 632 633 1
e 633 667 1
e 633 634 1
e 634 668 1
e 634 635 1
e 635 669 1
e 635 636 1
e 636 670 1
e 636 637 1
e 637 671 1
e 637 638 1
e 638 672 1
e 638 639 1
e 639 673 1
e 639 640 1
e 640 674 1
e 641 677 1
e 641 642 1
e 642 678 1
e 642 643 1
e 643 679 1
e 643 644 1
e 644 680 1
e 644 645 1
e 645 681 1
e 645 646 1
e 646 682 1
e 646 647 1
e 647 683 1
e 647 648 1
e 648 684 1
e 648 649 1
e 649 685 1
e 649 650 1
e 650 686 1
e 650 651 1
e 651 687 1
e 651 652 1
e 652 688 1
e 652 653 1
e 653 689 1
e 653 654 1
e 654 690 1
e 654 655 1
e 655 691 1
e 655 656 1
e 656 692 1
e 656 657 1
e 657 693 1
e 657 658 1
e 658 694 1
e 658 659 1
e 659 695 1
e 659 660 1
e 660 696 1
e 660 661 1
e 661 697 1
e 661 662 1
e 662 698 1
e 662 663 1
e 663 699 1
e 663 664 1
e 664 700 1
e 664 665 1
e 665 701 1
e 665 666 1
e 666 702 1
e 666 667 1
e 667 703 1
e 667 668 1
e 668 704 1
e 668 669 1
e 669 705 1
e 669 670 1
e 670 706 1
e 670 671 1
e 671 707 1
e 671 672 1
e 672 708 1
e 672 673 1
e 673 709 1
e 673 674 1
e 674 710 1
e 675 711 1
e 675 676 1
e 676 712 1
e 676 677 1
e 677 713 1
e 677 678 1
e 678 714 1
e 678 679 1
e 679 715 1
e 679 680 1
e 680 716 1
e 680 681 1
e 681 717 1
e 681 682 1
e 682 718 1
e 682 683 1
e 683 719 1
e 683 684 1
e 684 720 1
e 684 685 1
e 685 721 1
e 685 686 1
e 686 722 1
e 686 687 1
e 687 723 1
e 687 688 1
e 688 724 1
e 688 689 1
e 689 725 1
e 689 690 1
e 690 726 1
e 690 691 1
e 691 727 1
e 691 692 1
e 692 728 1
e 692 693 1
e 693 729 1
e 693 694 1
e 694 730 1
e 694 695 1
e 695 731 1
e 695 696 1
e 696 732 1
e 696 697 1
e 697 733 1
e 697 698 1
e 698 734 1
e 698 699 1
e 699 735 1
e 699 700 1
e 700 736 1
e 700 701 1
e 701 737 1
e 701 702 1
e 702 738 1
e 702 703 1
e 703 739 1
e 703 704 1
e 704 740 1
e 704 705 1
e 705 741 1
e 705 706 1
e 706 742 1
e 706 707 1
e 707 743 1
e 707 708 1
e 708 744 1
e 708 709 1
e 709 745 1
e 709 710 1
e 710 746 1
e 711 712 1
e 712 713 1
e 713 747 1
e 713 714 1
e 714 748 1
e 714 715 1
e 715 749 1
e 715 716 1
e 716 750 1
e 716 717 1
e 717 751 1
e 717 718 1
e 718 752 1
e 718 719 1
e 719 753 1
e 719 720 1
e 720 754 1
e 720 721 1
e 721 755 1
e 721 722 1
e 722 756 1
e 722 723 1
e 723 757 1
e 723 724 1
e 724 758 1
e 724 725 1
e 725 759 1
e 725 726 1
e 726 760 1
e 726 727 1
e 727 761 1
e 727 728 1
e 728 762 1
e 728 729 1
e 729 763 1
e 729 730 1
e 730 764 1
e 730 731 1
e 731 765 1
e 731 732 1
e 732 766 1
e 732 733 1
e 733 767 1
e 733 734 1
e 734 735 1
e 735 736 1
e 736 737 1
e 737 738 1
e 738 739 1
e 739 740 1
e 740 741 1
e 741 742 1
e 742 768 1
e 742 743 1
e 743 769 1
e 743 744 1
e 744 770 1
e 744 745 1
e 745 746 1
e 747 771 1
e 747 748 1
e 748 772 1
e 748 749 1
e 749 773 1
e 749 750 1
e 750 774 1
e 750 751 1
e 751 775 1
e 751 752 1
e 752 776 1
e 752 753 1
e 753 777 1
e 753 754 1
e 754 778 1
e 754 755 1
e 755 779 1
e 755 756 1
e 756 780 1
e 756 757 1
e 757 781 1
e 757 758 1
e 758 782 1
e 758 759 1
e 759 783 1
e 759 760 1
e 760 784 1
e 760 761 1
e 761 785 1
e 761 762 1
e 762 786 1
e 762 763 1
e 763 787 1
e 763 764 1
e 764 788 1
e 764 765 1
e 765 789 1
e 765 766 1
e 766 790 1
e 766 767 1
e 767 791 1
e 768 792 1
e 768 769 1
e 769 793 1
e 769 770 1
e 771 794 1
e 771 772 1
e 772 795 1
e 772 773 1
e 773 796 1
e 773 774 1
e 774 797 1
e 774 775 1
e 775 798 1
e 775 776 1
e 776 799 1
e 776 777 1
e 777 800 1
e 777 778 1
e 778 801 1
e 778 779 1
e 779 802 1
e 779 780 1
e 780 803 1
e 780 781 1
e 781 804 1
e 781 782 1
e 782 805 1
e 782 783 1
e 783 806 1
e 783 784 1
e 784 807 1
e 784 785 1
e 785 808 1
e 785 786 1
e 786 809 1
e 786 787 1
e 787 810 1
e 787 788 1
e 788 811 1
e 788 789 1
e 789 812 1
e 789 790 1
e 790 813 1
e 790 791 1
e 791 814 1
e 792 793 1
e 794 815 1
e 794 795 1
e 795 816 1
e 795 796 1
e 796 817 1
e 796 797 1
e 797 818 1
e 797 798 1
e 798 819 1
e 798 799 1
e 799 820 1
e 799 800 1
e 800 821 1
e 800 801 1
e 801 822 1
e 801 802 1
e 802 823 1
e 802 803 1
e 803 824 1
e 803 804 1
e 804 825 1
e 804 805 1
e 805 826 1
e 805 806 1
e 806 827 1
e 806 807 1
e 807 828 1
e 807 808 1
e 808 829 1
e 808 809 1
e 809 830 1
e 809 810 1
e 810 831 1
e 810 811 1
e 811 832 1
e 811 812 1
e 812 833 1
e 812 813 1
e 813 834 1
e 813 814 1
e 814 835 1
e 815 836 1
e 815 816 1
e 816 837 1
e 816 817 1
e 817 838 1
e 817 818 1
e 818 839 1
e 818 819 1
e 819 840 1
e 819 820 1
e 820 841 1
e 820 821 1
e 821 842 1
e 821 822 1
e 822 843 1
e 822 823 1
e 823 844 1
e 823 824 1
e 824 845 1
e 824 825 1
e 825 846 1
e 825 826 1
e 826 847 1
e 826 827 1
e 827 848 1
e 827 828 1
e 828 849 1
e 828 829 1
e 829 850 1
e 829 830 1
e 830 851 1
e 830 831 1
e 831 852 1
e 831 832 1
e 832 853 1
e 832 833 1
e 833 854 1
e 833 834 1
e 834 855 1
e 834 835 1
e 835 856 1
e 836 858 1
e 836 837 1
e 837 859 1
e 837 838 1
e 838 860 1
e 838 839 1
e 839 861 1
e 839 840 1
e 840 841 1
e 841 842 1
e 842 843 1
e 843 844 1
e 844 845 1
e 845 862 1
e 845 846 1
e 846 863 1
e 846 847 1
e 847 864 1
e 847 848 1
e 848 865 1
e 848 849 1
e 849 866 1
e 849 850 1
e 850 867 1
e 850 851 1
e 851 868 1
e 851 852 1
e 852 869 1
e 852 853 1
e 853 870 1
e 853 854 1
e 854 871 1
e 854 855 1
e 855 872 1
e 855 856 1
e 856 873 1
e 856 857 1
e 857 874 1
e 858 859 1
e 859 860 1
e 860 861 1
e 862 863 1
e 863 864 1
e 864 865 1
e 865 866 1
e 866 867 1
e 867 868 1
e 868 869 1
e 869 870 1
e 870 871 1
e 871 872 1
e 872 873 1
e 873 874 1